(set-logic QF_BV)
(declare-fun _substvar_86_ () (_ BitVec 8))
(declare-fun _substvar_211_ () (_ BitVec 8))
(declare-fun _substvar_207_ () (_ BitVec 8))
(declare-fun _substvar_220_ () (_ BitVec 8))
(declare-fun _substvar_224_ () (_ BitVec 16))
(assert (let ((?v_12 ((_ zero_extend 24) _substvar_86_)) (?v_11 ((_ zero_extend 24) _substvar_220_)) (?v_7 ((_ zero_extend 16) _substvar_224_))) (let ((?v_13 (bvadd ?v_7 (bvsub (_ bv4294967295 32) ?v_11)))) (let ((?v_8 (bvadd ?v_13 (bvsub (_ bv4294967295 32) ?v_12)))) (let ( (?v_9 ((_ zero_extend 24) _substvar_211_))) (and true true true true (bvult ?v_8 (bvadd ?v_9 (_ bv1 32))) true true true true true true true true true true true true (= (bvadd (bvadd (bvadd ?v_8 (bvsub (_ bv4294967295 32) ?v_9)) (_ bv0 32)) (bvsub (_ bv4294967295 32) ((_ zero_extend 24) _substvar_207_))) (_ bv0 32)) true true true true true true))))))
(check-sat)
(exit)
